code/impop/testformat.wcnf
c
c test max format
c
p wcnf 12 295
10000.0 -1 -56 0
10000.0 -1 -57 0
10000.0 -1 -58 0
10000.0 -1 -59 0
10000.0 -1 -60 0
10000.0 -2 -56 0
10000.0 -2 -57 0
10000.0 -2 -58 0
10000.0 -2 -59 0
10000.0 -2 -60 0
10000.0 -3 -56 0
10000.0 -3 -57 0
10000.0 -3 -58 0
10000.0 -3 -59 0
10000.0 -3 -60 0
10000.0 -4 -56 0
10000.0 -4 -57 0
10000.0 -4 -58 0
10000.0 -4 -59 0
10000.0 -4 -60 0
10000.0 -5 -56 0
10000.0 -5 -57 0
10000.0 -5 -58 0
10000.0 -5 -59 0
10000.0 -5 -60 0
10000.0 -16 -76 0
10000.0 -16 -77 0
10000.0 -16 -78 0
10000.0 -16 -79 0
10000.0 -16 -80 0
10000.0 -16 -91 0
10000.0 -16 -92 0
10000.0 -16 -93 0
10000.0 -16 -94 0
10000.0 -16 -95 0
10000.0 -16 -111 0
10000.0 -16 -112 0
10000.0 -16 -113 0
10000.0 -16 -114 0
10000.0 -16 -115 0
10000.0 -17 -76 0
10000.0 -17 -77 0
10000.0 -17 -78 0
10000.0 -17 -79 0
10000.0 -17 -80 0
10000.0 -17 -91 0
10000.0 -17 -92 0
10000.0 -17 -93 0
10000.0 -17 -94 0
10000.0 -17 -95 0
10000.0 -17 -111 0
10000.0 -17 -112 0
10000.0 -17 -113 0
10000.0 -17 -114 0
10000.0 -17 -115 0
10000.0 -18 -76 0
10000.0 -18 -77 0
10000.0 -18 -78 0
10000.0 -18 -79 0
10000.0 -18 -80 0
10000.0 -18 -91 0
10000.0 -18 -92 0
10000.0 -18 -93 0
10000.0 -18 -94 0
10000.0 -18 -95 0
10000.0 -18 -111 0
10000.0 -18 -112 0
10000.0 -18 -113 0
10000.0 -18 -114 0
10000.0 -18 -115 0
10000.0 -19 -76 0
10000.0 -19 -77 0
10000.0 -19 -78 0
10000.0 -19 -79 0
10000.0 -19 -80 0
10000.0 -19 -91 0
10000.0 -19 -92 0
10000.0 -19 -93 0
10000.0 -19 -94 0
10000.0 -19 -95 0
10000.0 -19 -111 0
10000.0 -19 -112 0
10000.0 -19 -113 0
10000.0 -19 -114 0
10000.0 -19 -115 0
10000.0 -20 -76 0
10000.0 -20 -77 0
10000.0 -20 -78 0
10000.0 -20 -79 0
10000.0 -20 -80 0
10000.0 -20 -91 0
10000.0 -20 -92 0
10000.0 -20 -93 0
10000.0 -20 -94 0
10000.0 -20 -95 0
10000.0 -20 -111 0
10000.0 -20 -112 0
10000.0 -20 -113 0
10000.0 -20 -114 0
10000.0 -20 -115 0
10000.0 -36 -61 0
10000.0 -36 -62 0
10000.0 -36 -63 0
10000.0 -36 -64 0
10000.0 -36 -65 0
10000.0 -37 -61 0
10000.0 -37 -62 0
10000.0 -37 -63 0
10000.0 -37 -64 0
10000.0 -37 -65 0
10000.0 -38 -61 0
10000.0 -38 -62 0
10000.0 -38 -63 0
10000.0 -38 -64 0
10000.0 -38 -65 0
10000.0 -39 -61 0
10000.0 -39 -62 0
10000.0 -39 -63 0
10000.0 -39 -64 0
10000.0 -39 -65 0
10000.0 -40 -61 0
10000.0 -40 -62 0
10000.0 -40 -63 0
10000.0 -40 -64 0
10000.0 -40 -65 0
10000.0 -41 -116 0
10000.0 -41 -117 0
10000.0 -41 -118 0
10000.0 -41 -119 0
10000.0 -41 -120 0
10000.0 -42 -116 0
10000.0 -42 -117 0
10000.0 -42 -118 0
10000.0 -42 -119 0
10000.0 -42 -120 0
10000.0 -43 -116 0
10000.0 -43 -117 0
10000.0 -43 -118 0
10000.0 -43 -119 0
10000.0 -43 -120 0
10000.0 -44 -116 0
10000.0 -44 -117 0
10000.0 -44 -118 0
10000.0 -44 -119 0
10000.0 -44 -120 0
10000.0 -45 -116 0
10000.0 -45 -117 0
10000.0 -45 -118 0
10000.0 -45 -119 0
10000.0 -45 -120 0
10000.0 -51 -91 0
10000.0 -51 -92 0
10000.0 -51 -93 0
10000.0 -51 -94 0
10000.0 -51 -95 0
10000.0 -52 -91 0
10000.0 -52 -92 0
10000.0 -52 -93 0
10000.0 -52 -94 0
10000.0 -52 -95 0
10000.0 -53 -91 0
10000.0 -53 -92 0
10000.0 -53 -93 0
10000.0 -53 -94 0
10000.0 -53 -95 0
10000.0 -54 -91 0
10000.0 -54 -92 0
10000.0 -54 -93 0
10000.0 -54 -94 0
10000.0 -54 -95 0
10000.0 -55 -91 0
10000.0 -55 -92 0
10000.0 -55 -93 0
10000.0 -55 -94 0
10000.0 -55 -95 0
1.609438 1 0
0.9162907 2 0
0.5108256 3 0
0.22314353 4 0
-0.0 5 0
1.609438 6 0
0.9162907 7 0
0.5108256 8 0
0.22314353 9 0
-0.0 10 0
1.609438 11 0
0.9162907 12 0
0.5108256 13 0
0.22314353 14 0
-0.0 15 0
1.609438 16 0
0.9162907 17 0
0.5108256 18 0
0.22314353 19 0
-0.0 20 0
1.609438 21 0
0.9162907 22 0
0.5108256 23 0
0.22314353 24 0
-0.0 25 0
1.609438 26 0
0.9162907 27 0
0.5108256 28 0
0.22314353 29 0
-0.0 30 0
1.609438 31 0
0.9162907 32 0
0.5108256 33 0
0.22314353 34 0
-0.0 35 0
1.609438 36 0
0.9162907 37 0
0.5108256 38 0
0.22314353 39 0
-0.0 40 0
1.609438 41 0
0.9162907 42 0
0.5108256 43 0
0.22314353 44 0
-0.0 45 0
1.609438 46 0
0.9162907 47 0
0.5108256 48 0
0.22314353 49 0
-0.0 50 0
1.609438 51 0
0.9162907 52 0
0.5108256 53 0
0.22314353 54 0
-0.0 55 0
1.609438 56 0
0.9162907 57 0
0.5108256 58 0
0.22314353 59 0
-0.0 60 0
1.609438 61 0
0.9162907 62 0
0.5108256 63 0
0.22314353 64 0
-0.0 65 0
1.609438 66 0
0.9162907 67 0
0.5108256 68 0
0.22314353 69 0
-0.0 70 0
1.609438 71 0
0.9162907 72 0
0.5108256 73 0
0.22314353 74 0
-0.0 75 0
1.609438 76 0
0.9162907 77 0
0.5108256 78 0
0.22314353 79 0
-0.0 80 0
1.609438 81 0
0.9162907 82 0
0.5108256 83 0
0.22314353 84 0
-0.0 85 0
1.609438 86 0
0.9162907 87 0
0.5108256 88 0
0.22314353 89 0
-0.0 90 0
1.609438 91 0
0.9162907 92 0
0.5108256 93 0
0.22314353 94 0
-0.0 95 0
1.609438 96 0
0.9162907 97 0
0.5108256 98 0
0.22314353 99 0
-0.0 100 0
1.609438 101 0
0.9162907 102 0
0.5108256 103 0
0.22314353 104 0
-0.0 105 0
1.609438 106 0
0.9162907 107 0
0.5108256 108 0
0.22314353 109 0
-0.0 110 0
1.609438 111 0
0.9162907 112 0
0.5108256 113 0
0.22314353 114 0
-0.0 115 0
1.609438 116 0
0.9162907 117 0
0.5108256 118 0
0.22314353 119 0
-0.0 120 0
